unknown
(model
; cardinality of BoundSet is 4
(declare-sort BoundSet 0)
; rep: @uc_BoundSet_0
; rep: @uc_BoundSet_1
; rep: @uc_BoundSet_2
; rep: @uc_BoundSet_3
; cardinality of UnboundSet is 1
(declare-sort UnboundSet 0)
(declare-fun groundTerm_5 () UnboundSet)
(define-fun IsBlond ((BOUND_VARIABLE_451 BoundSet)) Bool true)
(define-fun HasTattoo ((BOUND_VARIABLE_458 BoundSet) (BOUND_VARIABLE_459 BoundSet)) Bool true)
(define-fun IsOfAngel ((BOUND_VARIABLE_458 BoundSet) (BOUND_VARIABLE_459 BoundSet)) Bool true)
(define-fun IsOnArm ((BOUND_VARIABLE_458 BoundSet) (BOUND_VARIABLE_459 BoundSet)) Bool true)
(define-fun IsPersonWithTattoo ((BOUND_VARIABLE_451 BoundSet)) Bool false)
(define-fun IsWalking ((BOUND_VARIABLE_451 BoundSet)) Bool false)
(define-fun IsOnStreet ((BOUND_VARIABLE_458 BoundSet) (BOUND_VARIABLE_459 BoundSet)) Bool false)
)
sat
(model
; cardinality of BoundSet is 1
(declare-sort BoundSet 0)
; rep: @uc_BoundSet_0
; cardinality of UnboundSet is 1
(declare-sort UnboundSet 0)
(declare-fun groundTerm_7 () UnboundSet)
(define-fun IsBlond ((BOUND_VARIABLE_521 BoundSet)) Bool true)
(define-fun HasTattoo ((BOUND_VARIABLE_528 BoundSet) (BOUND_VARIABLE_529 BoundSet)) Bool true)
(define-fun IsOfAngel ((BOUND_VARIABLE_528 BoundSet) (BOUND_VARIABLE_529 BoundSet)) Bool true)
(define-fun IsOnArm ((BOUND_VARIABLE_528 BoundSet) (BOUND_VARIABLE_529 BoundSet)) Bool true)
(define-fun IsPersonWithTattoo ((BOUND_VARIABLE_521 BoundSet)) Bool false)
(define-fun IsWalking ((BOUND_VARIABLE_521 BoundSet)) Bool true)
(define-fun IsOnStreet ((BOUND_VARIABLE_528 BoundSet) (BOUND_VARIABLE_529 BoundSet)) Bool true)
)
